Set parameter Username
Academic license - for non-commercial use only - expires 2024-02-22
Warning: Gurobi version mismatch between Python 9.5.0 and C library 9.5.2
Set parameter TimeLimit to value 3600
Set parameter MIPGap to value 1e-06
Set parameter Threads to value 1
Gurobi Optimizer version 9.5.2 build v9.5.2rc0 (linux64)
Thread count: 4 physical cores, 4 logical processors, using up to 1 threads
Optimize a model with 260 rows, 312 columns and 674 nonzeros
Model fingerprint: 0x55856038
Variable types: 208 continuous, 104 integer (104 binary)
Coefficient statistics:
  Matrix range     [1e+00, 2e+02]
  Objective range  [8e-01, 2e+03]
  Bounds range     [1e+00, 1e+00]
  RHS range        [1e+01, 2e+02]
Found heuristic solution: objective 53931.200000
Presolve removed 5 rows and 5 columns
Presolve time: 0.00s
Presolved: 255 rows, 307 columns, 667 nonzeros
Variable types: 204 continuous, 103 integer (103 binary)

Root relaxation: objective 2.072375e+04, 207 iterations, 0.00 seconds (0.00 work units)

    Nodes    |    Current Node    |     Objective Bounds      |     Work
 Expl Unexpl |  Obj  Depth IntInf | Incumbent    BestBd   Gap | It/Node Time

     0     0 20723.7504    0   82 53931.2000 20723.7504  61.6%     -    0s
H    0     0                    46914.800000 20723.7504  55.8%     -    0s
     0     0 23333.5162    0   80 46914.8000 23333.5162  50.3%     -    0s
H    0     0                    39632.800000 23333.5162  41.1%     -    0s
     0     0 24141.4361    0   71 39632.8000 24141.4361  39.1%     -    0s
H    0     0                    36700.200000 24141.4361  34.2%     -    0s
     0     0 24246.3068    0   66 36700.2000 24246.3068  33.9%     -    0s
     0     0 24290.2088    0   65 36700.2000 24290.2088  33.8%     -    0s
     0     0 24290.3391    0   67 36700.2000 24290.3391  33.8%     -    0s
     0     0 24555.8045    0   68 36700.2000 24555.8045  33.1%     -    0s
     0     0 24567.9421    0   70 36700.2000 24567.9421  33.1%     -    0s
     0     0 24568.8861    0   68 36700.2000 24568.8861  33.1%     -    0s
     0     0 24666.4592    0   69 36700.2000 24666.4592  32.8%     -    0s
H    0     0                    29861.200000 24666.4592  17.4%     -    0s
     0     0 24682.3800    0   70 29861.2000 24682.3800  17.3%     -    0s
     0     0 24683.7372    0   70 29861.2000 24683.7372  17.3%     -    0s
     0     0 24746.7091    0   72 29861.2000 24746.7091  17.1%     -    0s
H    0     0                    29442.800000 24746.7091  15.9%     -    0s
     0     0 24754.8540    0   68 29442.8000 24754.8540  15.9%     -    0s
     0     0 24758.6442    0   67 29442.8000 24758.6442  15.9%     -    0s
     0     0 24759.8903    0   72 29442.8000 24759.8903  15.9%     -    0s
     0     0 24781.2393    0   65 29442.8000 24781.2393  15.8%     -    0s
     0     0 24781.2393    0   65 29442.8000 24781.2393  15.8%     -    0s
     0     2 24783.2001    0   65 29442.8000 24783.2001  15.8%     -    0s
H   26    26                    29057.800000 24783.2001  14.7%   8.3    0s
H   39    39                    28172.311738 24783.2001  12.0%   6.1    0s
H   41    41                    27999.272134 24783.2001  11.5%   6.0    0s
H   42    42                    27871.908611 24783.2001  11.1%   6.0    0s
H   43    43                    27667.339599 24783.2001  10.4%   6.1    0s
H   44    44                    27564.491732 24783.2001  10.1%   6.0    0s
H   45    45                    27507.492146 24783.2001  9.90%   6.1    0s
H   47    47                    27405.693043 24783.2001  9.57%   6.0    0s
H   48    48                    27193.054742 24783.2001  8.86%   6.0    0s
H   50    50                    27026.564433 24783.2001  8.30%   6.0    0s
H   51    51                    26922.564433 24783.2001  7.95%   6.0    0s
H   52    52                    26755.966495 24783.2001  7.37%   5.9    0s
H   52    52                    26473.181591 24783.2001  6.38%   5.9    0s
H   54    47                    25934.200000 24783.2001  4.44%   5.9    0s
*   62    55              57    25848.200000 24783.2001  4.12%   5.8    0s
*   64    53              59    25818.200000 24783.2001  4.01%   5.7    0s
H  114    95                    25798.400000 24795.3248  3.89%   6.1    0s
H  133   110                    25748.894662 24795.3248  3.70%   5.9    0s
*  134   108              59    25687.400000 24795.3248  3.47%   5.9    0s
H  135   104                    25657.400000 24795.3248  3.36%   5.8    0s
H  553   277                    25623.400000 25004.2548  2.42%   8.7    0s
H  606   278                    25439.400000 25011.4928  1.68%  11.4    0s

Cutting planes:
  Gomory: 2
  MIR: 124
  Flow cover: 112
  Flow path: 25

Explored 3016 nodes (54606 simplex iterations) in 3.02 seconds (2.32 work units)
Thread count was 1 (of 4 available processors)

Solution count 10: 25439.4 25623.4 25657.4 ... 26756

Optimal solution found (tolerance 1.00e-06)
Best objective 2.543940000000e+04, best bound 2.543940000000e+04, gap 0.0000%
Obj: 25439.4
